Gurobi 12.0.3:   lim:time = 14400

  mip:bestbound = 1

Set parameter LogToConsole to value 1

  tech:outlev = 1

Set parameter Cuts to value 3

  cut:cuts = 3

Set parameter Presolve to value 2

  pre:solve = 2

Set parameter MIPFocus to value 2

  mip:focus = 2

Set parameter Symmetry to value 2

  mip:symmetry = 2

Set parameter InfUnbdInfo to value 1

Gurobi Optimizer version 12.0.3 build v12.0.3rc0 (win64 - Windows 11.0 (26100.2))



CPU model: 12th Gen Intel(R) Core(TM) i7-12700, instruction set [SSE2|AVX|AVX2]

Thread count: 12 physical cores, 20 logical processors, using up to 20 threads



Non-default parameters:

TimeLimit  14400

MIPFocus  2

Symmetry  2

Cuts  3

InfUnbdInfo  1

Presolve  2



Optimize a model with 219 rows, 263 columns and 1442 nonzeros

Model fingerprint: 0x76a66470

Model has 2 quadratic objective terms

Model has 6 quadratic constraints

Variable types: 25 continuous, 238 integer (0 binary)

Coefficient statistics:

  Matrix range     [1e+00, 1e+05]

  QMatrix range    [1e+00, 1e+00]

  QLMatrix range   [1e+00, 2e+01]

  Objective range  [3e+00, 1e+02]

  QObjective range [2e+00, 2e+00]

  Bounds range     [1e+00, 1e+02]

  RHS range        [1e+00, 1e+05]

  QRHS range       [2e+01, 1e+02]

Presolve removed 8 rows and 34 columns

Presolve time: 0.02s

Presolved: 343 rows, 353 columns, 2115 nonzeros

Variable types: 68 continuous, 285 integer (246 binary)

Found heuristic solution: objective 228.6400000

Root relaxation presolve removed 31 rows and 1 columns

Root relaxation presolved: 273 rows, 334 columns, 2027 nonzeros





Root relaxation: objective 5.339143e+01, 80 iterations, 0.00 seconds (0.00 work units)



    Nodes    |    Current Node    |     Objective Bounds      |     Work

 Expl Unexpl |  Obj  Depth IntInf | Incumbent    BestBd   Gap | It/Node Time



     0     0   53.39143    0   27  228.64000   53.39143  76.6%     -    0s

H    0     0                     227.2200000   53.39143  76.5%     -    0s

H    0     0                     226.4700000   53.39143  76.4%     -    0s

H    0     0                     226.0600000   56.53301  75.0%     -    0s

H    0     0                     222.4100000   72.71838  67.3%     -    0s

     0     0   76.77429    0   28  222.41000   76.77429  65.5%     -    0s

H    0     0                     200.9600000   76.77429  61.8%     -    0s

     0     0   76.77429    0   37  200.96000   76.77429  61.8%     -    0s

H    0     0                     199.8100000  136.66500  31.6%     -    0s

H    0     0                     166.2900000  136.66500  17.8%     -    0s

H    0     0                     164.2600000  136.66500  16.8%     -    0s

     0     0  140.34000    0   37  164.26000  140.34000  14.6%     -    0s

H    0     0                     162.9600000  140.34000  13.9%     -    0s

     0     0  142.34000    0   53  162.96000  142.34000  12.7%     -    0s

     0     0  142.80500    0   53  162.96000  142.80500  12.4%     -    0s

     0     0  148.36591    0   53  162.96000  148.36591  8.96%     -    0s

     0     0  148.36591    0   69  162.96000  148.36591  8.96%     -    0s

     0     0  148.57000    0   69  162.96000  148.57000  8.83%     -    0s

     0     0  148.57000    0   27  162.96000  148.57000  8.83%     -    0s

     0     0  148.57000    0   21  162.96000  148.57000  8.83%     -    0s

     0     0  148.57000    0   19  162.96000  148.57000  8.83%     -    0s

     0     0  148.57000    0   16  162.96000  148.57000  8.83%     -    0s

     0     0  148.57000    0   16  162.96000  148.57000  8.83%     -    0s

     0     0  148.57000    0    6  162.96000  148.57000  8.83%     -    0s

     0     0  148.57000    0   27  162.96000  148.57000  8.83%     -    0s

     0     0  148.57000    0   34  162.96000  148.57000  8.83%     -    0s

     0     0  148.57000    0   38  162.96000  148.57000  8.83%     -    0s

     0     0  148.57000    0    8  162.96000  148.57000  8.83%     -    0s

     0     0  148.57000    0    8  162.96000  148.57000  8.83%     -    0s

     0     0  148.57000    0    8  162.96000  148.57000  8.83%     -    0s

     0     2  148.57000    0    8  162.96000  148.57000  8.83%     -    0s



Cutting planes:

  Learned: 8

  Gomory: 39

  Lift-and-project: 11

  Cover: 2

  Implied bound: 18

  Projected implied bound: 2

  Clique: 1

  MIR: 8

  StrongCG: 4

  Flow cover: 79

  Zero half: 21

  RLT: 17

  Relax-and-lift: 9



Explored 1152 nodes (10025 simplex iterations) in 0.87 seconds (0.54 work units)

Thread count was 20 (of 20 available processors)



Solution count 10: 162.96 164.26 166.29 ... 228.64



Optimal solution found (tolerance 1.00e-04)

Best objective 1.629600000000e+02, best bound 1.629600000000e+02, gap 0.0000%



AMPL MP initial flat model has 263 variables (0 integer, 238 binary);

Objectives: 1 quadratic; 

Constraints:  219 linear; 6 quadratic;



AMPL MP final model has 263 variables (0 integer, 238 binary);

Objectives: 1 quadratic; 

Constraints:  219 linear; 6 quadratic;





-----RESULTS INFO-----
running_time:  0.953
TC.best_bound:  162.96
TC:  162.95999999999998
MIP Gap (%):  1.7440911530684836e-14
=== Vehicle Routes ===
Vehicle 1: 0 → 2
Vehicle 1: 1 → 14
Vehicle 1: 2 → 7
Vehicle 1: 6 → 1
Vehicle 1: 7 → 6
Vehicle 2: 0 → 14

=== Full Vehicle Routes ===
Vehicle 1: 0 → 2 → 7 → 6 → 1 → 0 (77<100)
Vehicle 2: 0 → 0 (0<100)
Arc used by MRT line: y variables:
MRT used: 7 → 8
Customer assigment to PL: u variables:
3 7
4 8
5 7
Node is served by regular vehicle: g variables:
1
2
6
7
Customer assigment to Home delivery: gm variables:
1
2
6
Node total demands: ntd variables:
1 13 1
2 12 1
5 0 0
6 10 1
13 0 0
7 42 1
8 0 0
9 0 0
10 0 0
11 0 0
12 0 0
Customer's demand delivered to PL: l variables:
3
4
5
Lockers load <= capacity:
0 <= 81
21 <= 98
21 <= 84
0 <= 72
0 <= 91
0 <= 89
0 <= 74
